c uprop, v00.0, 
c reading from data/prog543.c.cnf
c done reading: 0.003112
p cnf 149 761
-59 -68 0
-55 -68 0
55 59 68 0
55 59 -66 0
-55 -59 -66 0
55 -59 66 0
-55 59 66 0
68 -69 0
-47 -69 0
47 -68 69 0
47 -67 -68 0
-47 -67 68 0
47 67 68 0
-47 67 -68 0
-65 69 0
-62 -65 0
62 65 -69 0
-57 62 -69 0
-57 -62 69 0
57 62 69 0
57 -62 -69 0
-53 65 0
-50 -53 0
50 53 -65 0
-45 50 -65 0
-45 -50 65 0
45 50 65 0
45 -50 -65 0
53 -64 0
-64 -71 0
-53 64 71 0
-52 -53 71 0
-52 53 -71 0
52 53 71 0
52 -53 -71 0
64 -73 0
-73 -75 0
-64 73 75 0
-64 75 -77 0
64 -75 -77 0
64 75 77 0
-64 -75 77 0
73 -78 0
-78 -80 0
-73 78 80 0
-73 80 -82 0
73 -80 -82 0
73 80 82 0
-73 -80 82 0
55 -83 0
59 -83 0
-55 -59 83 0
-55 -59 -84 0
55 59 -84 0
-55 59 84 0
55 -59 84 0
-47 -55 85 0
-47 -83 85 0
-55 -83 85 0
47 55 -85 0
47 83 -85 0
55 83 -85 0
47 -85 -86 0
55 -85 -86 0
83 -85 -86 0
-47 85 86 0
-55 85 86 0
-83 85 86 0
-47 -55 -83 86 0
47 55 83 -86 0
-47 -62 87 0
-62 -85 87 0
-47 -85 87 0
47 62 -87 0
62 85 -87 0
47 85 -87 0
62 -87 -88 0
47 -87 -88 0
85 -87 -88 0
-62 87 88 0
-47 87 88 0
-85 87 88 0
-47 -62 -85 88 0
47 62 85 -88 0
-50 -62 89 0
-50 -87 89 0
-62 -87 89 0
50 62 -89 0
50 87 -89 0
62 87 -89 0
-44 50 -89 0
-44 62 -89 0
-44 87 -89 0
44 -50 89 0
44 -62 89 0
44 -87 89 0
44 -50 -62 -87 0
-44 50 62 87 0
43 -50 -71 0
43 -71 -89 0
43 -50 -89 0
-43 50 71 0
-43 71 89 0
-43 50 89 0
-42 -43 71 0
-42 -43 50 0
-42 -43 89 0
42 43 -71 0
42 43 -50 0
42 43 -89 0
42 -50 -71 -89 0
-42 50 71 89 0
41 -71 -75 0
41 -43 -75 0
41 -43 -71 0
-41 71 75 0
-41 43 75 0
-41 43 71 0
-40 -41 75 0
-40 -41 71 0
-40 -41 43 0
40 41 -75 0
40 41 -71 0
40 41 -43 0
40 -43 -71 -75 0
-40 43 71 75 0
39 -75 -80 0
39 -41 -80 0
39 -41 -75 0
-39 75 80 0
-39 41 80 0
-39 41 75 0
-38 -39 80 0
-38 -39 75 0
-38 -39 41 0
38 39 -80 0
38 39 -75 0
38 39 -41 0
38 -41 -75 -80 0
-38 41 75 80 0
-37 80 0
-37 39 0
37 -39 -80 0
-36 -39 -80 0
-36 39 80 0
36 39 -80 0
36 -39 80 0
-35 86 0
-35 59 0
35 -59 -86 0
-34 -59 -86 0
-34 59 86 0
34 59 -86 0
34 -59 86 0
33 -55 -88 0
33 -35 -88 0
33 -35 -55 0
-33 55 88 0
-33 35 88 0
-33 35 55 0
-32 -33 88 0
-32 -33 55 0
-32 -33 35 0
32 33 -88 0
32 33 -55 0
32 33 -35 0
32 -35 -55 -88 0
-32 35 55 88 0
31 -44 -47 0
31 -33 -44 0
31 -33 -47 0
-31 44 47 0
-31 33 44 0
-31 33 47 0
-31 44 -58 0
-31 47 -58 0
-31 33 -58 0
31 -44 58 0
31 -47 58 0
31 -33 58 0
-33 -44 -47 58 0
33 44 47 -58 0
-42 54 -62 0
-31 -42 54 0
-31 54 -62 0
42 -54 62 0
31 42 -54 0
31 -54 62 0
42 -46 -54 0
-46 -54 62 0
31 -46 -54 0
-42 46 54 0
46 54 -62 0
-31 46 54 0
-31 -42 46 -62 0
31 42 -46 62 0
-40 -50 61 0
-40 -54 61 0
-50 -54 61 0
40 50 -61 0
40 54 -61 0
50 54 -61 0
40 -49 -61 0
-49 50 -61 0
-49 54 -61 0
-40 49 61 0
49 -50 61 0
49 -54 61 0
-40 49 -50 -54 0
40 -49 50 54 0
-38 70 -71 0
-38 -61 70 0
-61 70 -71 0
38 -70 71 0
38 61 -70 0
61 -70 71 0
38 -70 -74 0
-70 71 -74 0
61 -70 -74 0
-38 70 74 0
70 -71 74 0
-61 70 74 0
-38 -61 -71 74 0
38 61 71 -74 0
-36 -75 79 0
-36 -70 79 0
-70 -75 79 0
36 75 -79 0
36 70 -79 0
70 75 -79 0
-30 36 -79 0
-30 75 -79 0
-30 70 -79 0
30 -36 79 0
30 -75 79 0
30 -70 79 0
30 -36 -70 -75 0
-30 36 70 75 0
29 -37 -80 0
29 -37 -79 0
29 -79 -80 0
-29 37 80 0
-29 37 79 0
-29 79 80 0
-28 -29 37 0
-28 -29 80 0
-28 -29 79 0
28 29 -37 0
28 29 -80 0
28 29 -79 0
28 -37 -79 -80 0
-28 37 79 80 0
-27 32 0
-27 59 0
27 -32 -59 0
-26 -32 -59 0
-26 32 59 0
26 -32 59 0
26 32 -59 0
25 -55 -58 0
25 -27 -58 0
25 -27 -55 0
-25 55 58 0
-25 27 58 0
-25 27 55 0
-24 -25 58 0
-24 -25 55 0
-24 -25 27 0
24 25 -58 0
24 25 -55 0
24 25 -27 0
24 -27 -55 -58 0
-24 27 55 58 0
23 -46 -47 0
23 -25 -46 0
23 -25 -47 0
-23 46 47 0
-23 25 46 0
-23 25 47 0
-23 46 -90 0
-23 47 -90 0
-23 25 -90 0
23 -46 90 0
23 -47 90 0
23 -25 90 0
-25 -46 -47 90 0
25 46 47 -90 0
-49 -62 91 0
-23 -49 91 0
-23 -62 91 0
49 62 -91 0
23 49 -91 0
23 62 -91 0
49 -91 -92 0
62 -91 -92 0
23 -91 -92 0
-49 91 92 0
-62 91 92 0
-23 91 92 0
-23 -49 -62 92 0
23 49 62 -92 0
-50 -74 93 0
-74 -91 93 0
-50 -91 93 0
50 74 -93 0
74 91 -93 0
50 91 -93 0
74 -93 -94 0
50 -93 -94 0
91 -93 -94 0
-74 93 94 0
-50 93 94 0
-91 93 94 0
-50 -74 -91 94 0
50 74 91 -94 0
-30 -71 95 0
-30 -93 95 0
-71 -93 95 0
30 71 -95 0
30 93 -95 0
71 93 -95 0
30 -95 -96 0
71 -95 -96 0
93 -95 -96 0
-30 95 96 0
-71 95 96 0
-93 95 96 0
-30 -71 -93 96 0
30 71 93 -96 0
-28 -75 97 0
-28 -95 97 0
-75 -95 97 0
28 75 -97 0
28 95 -97 0
75 95 -97 0
28 -97 -98 0
75 -97 -98 0
95 -97 -98 0
-28 97 98 0
-75 97 98 0
-95 97 98 0
-28 -75 -95 98 0
28 75 95 -98 0
-29 -80 99 0
-29 -97 99 0
-80 -97 99 0
29 80 -99 0
29 97 -99 0
80 97 -99 0
29 -99 -100 0
80 -99 -100 0
97 -99 -100 0
-29 99 100 0
-80 99 100 0
-97 99 100 0
-29 -80 -97 100 0
29 80 97 -100 0
24 -101 0
59 -101 0
-24 -59 101 0
-24 -59 -102 0
24 59 -102 0
-24 59 102 0
24 -59 102 0
-55 -90 103 0
-90 -101 103 0
-55 -101 103 0
55 90 -103 0
90 101 -103 0
55 101 -103 0
90 -103 -104 0
55 -103 -104 0
101 -103 -104 0
-90 103 104 0
-55 103 104 0
-101 103 104 0
-55 -90 -101 104 0
55 90 101 -104 0
-47 -92 105 0
-92 -103 105 0
-47 -103 105 0
47 92 -105 0
92 103 -105 0
47 103 -105 0
92 -105 -106 0
47 -105 -106 0
103 -105 -106 0
-92 105 106 0
-47 105 106 0
-103 105 106 0
-47 -92 -103 106 0
47 92 103 -106 0
-62 -94 107 0
-94 -105 107 0
-62 -105 107 0
62 94 -107 0
94 105 -107 0
62 105 -107 0
94 -107 -108 0
62 -107 -108 0
105 -107 -108 0
-94 107 108 0
-62 107 108 0
-105 107 108 0
-62 -94 -105 108 0
62 94 105 -108 0
-50 -96 109 0
-96 -107 109 0
-50 -107 109 0
50 96 -109 0
96 107 -109 0
50 107 -109 0
96 -109 -110 0
50 -109 -110 0
107 -109 -110 0
-96 109 110 0
-50 109 110 0
-107 109 110 0
-50 -96 -107 110 0
50 96 107 -110 0
-71 -98 111 0
-98 -109 111 0
-71 -109 111 0
71 98 -111 0
98 109 -111 0
71 109 -111 0
98 -111 -112 0
71 -111 -112 0
109 -111 -112 0
-98 111 112 0
-71 111 112 0
-109 111 112 0
-71 -98 -109 112 0
71 98 109 -112 0
-75 -100 113 0
-100 -111 113 0
-75 -111 113 0
75 100 -113 0
100 111 -113 0
75 111 -113 0
100 -113 -114 0
75 -113 -114 0
111 -113 -114 0
-100 113 114 0
-75 113 114 0
-111 113 114 0
-75 -100 -111 114 0
75 100 111 -114 0
-80 -99 115 0
-99 -113 115 0
-80 -113 115 0
80 99 -115 0
99 113 -115 0
80 113 -115 0
99 -115 -116 0
80 -115 -116 0
113 -115 -116 0
-99 115 116 0
-80 115 116 0
-113 115 116 0
-80 -99 -113 116 0
80 99 113 -116 0
104 -117 0
59 -117 0
-59 -104 117 0
-59 -104 -118 0
59 104 -118 0
59 -104 118 0
-59 104 118 0
-55 -106 119 0
-106 -117 119 0
-55 -117 119 0
55 106 -119 0
106 117 -119 0
55 117 -119 0
106 -119 -120 0
55 -119 -120 0
117 -119 -120 0
-106 119 120 0
-55 119 120 0
-117 119 120 0
-55 -106 -117 120 0
55 106 117 -120 0
-47 -108 121 0
-108 -119 121 0
-47 -119 121 0
47 108 -121 0
108 119 -121 0
47 119 -121 0
108 -121 -122 0
47 -121 -122 0
119 -121 -122 0
-108 121 122 0
-47 121 122 0
-119 121 122 0
-47 -108 -119 122 0
47 108 119 -122 0
-62 -110 123 0
-110 -121 123 0
-62 -121 123 0
62 110 -123 0
110 121 -123 0
62 121 -123 0
110 -123 -124 0
62 -123 -124 0
121 -123 -124 0
-110 123 124 0
-62 123 124 0
-121 123 124 0
-62 -110 -121 124 0
62 110 121 -124 0
-50 -112 125 0
-112 -123 125 0
-50 -123 125 0
50 112 -125 0
112 123 -125 0
50 123 -125 0
112 -125 -126 0
50 -125 -126 0
123 -125 -126 0
-112 125 126 0
-50 125 126 0
-123 125 126 0
-50 -112 -123 126 0
50 112 123 -126 0
-71 -114 127 0
-114 -125 127 0
-71 -125 127 0
71 114 -127 0
114 125 -127 0
71 125 -127 0
114 -127 -128 0
71 -127 -128 0
125 -127 -128 0
-114 127 128 0
-71 127 128 0
-125 127 128 0
-71 -114 -125 128 0
71 114 125 -128 0
-75 -116 129 0
-116 -127 129 0
-75 -127 129 0
75 116 -129 0
116 127 -129 0
75 127 -129 0
116 -129 -130 0
75 -129 -130 0
127 -129 -130 0
-116 129 130 0
-75 129 130 0
-127 129 130 0
-75 -116 -127 130 0
75 116 127 -130 0
-80 -115 131 0
-115 -129 131 0
-80 -129 131 0
80 115 -131 0
115 129 -131 0
80 129 -131 0
115 -131 -132 0
80 -131 -132 0
129 -131 -132 0
-115 131 132 0
-80 131 132 0
-129 131 132 0
-80 -115 -129 132 0
80 115 129 -132 0
-59 -133 0
-84 -133 0
59 84 133 0
59 84 -134 0
-59 -84 -134 0
-59 84 134 0
59 -84 134 0
133 -135 0
-34 -135 0
34 -133 135 0
34 -133 -136 0
-34 133 -136 0
34 133 136 0
-34 -133 136 0
135 -137 0
-26 -137 0
26 -135 137 0
26 -135 -138 0
-26 135 -138 0
26 135 138 0
-26 -135 138 0
137 -139 0
-102 -139 0
102 -137 139 0
102 -137 -140 0
-102 137 -140 0
102 137 140 0
-102 -137 140 0
139 -141 0
-118 -141 0
118 -139 141 0
-60 118 -139 0
-60 -118 139 0
60 118 139 0
60 -118 -139 0
-56 141 0
-56 -120 0
56 120 -141 0
-48 120 -141 0
-48 -120 141 0
48 120 141 0
48 -120 -141 0
56 -63 0
-63 -122 0
-56 63 122 0
-51 -56 122 0
-51 56 -122 0
51 56 122 0
51 -56 -122 0
63 -72 0
-72 -124 0
-63 72 124 0
-63 -76 124 0
63 -76 -124 0
63 76 124 0
-63 76 -124 0
72 -81 0
-81 -126 0
-72 81 126 0
-72 126 -142 0
72 -126 -142 0
72 126 142 0
-72 -126 142 0
81 -143 0
-128 -143 0
-81 128 143 0
-81 128 -144 0
81 -128 -144 0
81 128 144 0
-81 -128 144 0
143 -145 0
-130 -145 0
130 -143 145 0
130 -143 -146 0
-130 143 -146 0
130 143 146 0
-130 -143 146 0
145 -147 0
-132 -147 0
132 -145 147 0
132 -145 -148 0
-132 145 -148 0
132 145 148 0
-132 -145 148 0
147 -149 0
-131 -149 0
131 -147 149 0
-22 131 -147 0
-22 -131 147 0
22 131 147 0
22 -131 -147 0
-20 21 0
-20 59 0
20 -21 -59 0
-21 -59 0
21 59 0
18 -19 -84 0
18 -19 -20 0
18 -20 -84 0
-18 19 84 0
-18 19 20 0
-18 20 84 0
-18 19 0
-18 84 0
-18 20 0
19 20 84 0
16 -17 -34 0
16 -17 -18 0
16 -18 -34 0
-16 17 34 0
-16 17 18 0
-16 18 34 0
-16 17 0
-16 34 0
-16 18 0
17 18 34 0
14 -15 -26 0
14 -15 -16 0
14 -16 -26 0
-14 15 26 0
-14 15 16 0
-14 16 26 0
14 -15 0
14 -26 0
14 -16 0
-15 -16 -26 0
12 -13 -102 0
12 -13 -14 0
12 -14 -102 0
-12 13 102 0
-12 13 14 0
-12 14 102 0
12 -13 0
12 -102 0
12 -14 0
-13 -14 -102 0
10 -11 -118 0
10 -11 -12 0
10 -12 -118 0
-10 11 118 0
-10 11 12 0
-10 12 118 0
10 -11 0
10 -118 0
10 -12 0
-11 -12 -118 0
8 -9 -120 0
8 -9 -10 0
8 -10 -120 0
-8 9 120 0
-8 9 10 0
-8 10 120 0
8 -9 0
8 -120 0
8 -10 0
-9 -10 -120 0
6 -7 -122 0
6 -7 -8 0
6 -8 -122 0
-6 7 122 0
-6 7 8 0
-6 8 122 0
6 -7 0
6 -122 0
6 -8 0
-7 -8 -122 0
-5 124 0
-5 6 0
5 -6 -124 0
6 -124 0
-6 124 0
-4 126 0
-4 5 0
4 -5 -126 0
5 -126 0
-5 126 0
-3 128 0
-3 4 0
3 -4 -128 0
4 -128 0
-4 128 0
-2 130 0
-2 3 0
2 -3 -130 0
3 -130 0
-3 130 0
-1 132 0
-1 2 0
1 -2 -132 0
2 -132 0
-2 132 0
-1 -131 0
1 -131 0
-1 131 0
